0 55 181
1 60 204
2 150 211
3 188 223
4 67 226
5 215 226
6 138 227
7 119 228
8 203 229
9 195 229
10 226 230
11 215 231
12 227 230
13 166 229
14 223 228
15 225 227
16 206 226
17 214 226
18 202 225
19 224 224
20 224 224
21 76 224
22 154 226
23 220 229
24 226 230
25 225 232
26 143 232
27 211 232
28 222 231
29 182 230
30 223 229
31 224 228
32 226 226
33 223 226
34 214 227
35 227 227
36 207 226
37 203 226
38 225 226
39 136 225
40 222 225
41 202 224
42 215 224
43 183 223
44 191 221
45 212 219
46 217 218
47 214 217
48 200 216
49 192 215
50 204 216
51 214 216
52 173 215
53 209 213
54 198 213
55 202 213
56 193 214
57 207 215
58 174 214
59 178 215
60 209 213
61 181 211
62 210 212
63 207 211
64 206 211
65 208 211
66 115 209
67 146 209
68 172 209
69 204 208
70 202 207
71 202 206
72 204 205
73 44 206
74 86 207
75 200 207
76 206 207
77 191 206
78 190 206
79 199 207
80 143 206
81 143 205
82 196 205
83 180 204
84 203 203
85 183 203
86 192 203
87 119 202
88 150 201
89 135 207
90 166 207
91 204 206
92 175 205
93 204 205
94 204 204
95 198 204
96 65 204
97 203 203
98 171 201
99 187 200
100 158 199
101 188 199
102 186 198
103 183 198
104 185 197
105 176 195
106 180 193
107 177 192
108 140 190
109 165 191
110 179 191
111 190 191
112 185 189
113 188 189
114 186 189
115 181 188
116 185 187
117 181 186
118 178 185
119 143 185
120 171 185
121 167 184
122 163 185
123 136 184
124 184 184
125 144 183
126 181 182
127 181 181
128 165 180
129 179 180
130 145 179
131 149 178
132 174 177
133 175 175
134 37 173
135 169 178
136 93 180
137 165 181
138 160 183
139 180 183
140 171 182
141 176 183
142 171 183
143 157 183
144 169 182
145 174 181
146 133 180
147 93 178
148 129 177
149 39 179
150 172 180
151 145 180
152 162 180
153 170 180
154 152 180
155 130 180
156 179 180
157 160 179
158 163 178
159 119 177
160 56 176
161 167 176
162 163 176
163 171 177
164 154 177
165 121 175
166 168 174
167 159 174
168 94 173
169 124 172
170 128 170
171 167 167
172 101 165
173 164 165
174 164 164
175 156 163
176 154 162
177 46 161
178 130 161
179 23 166
180 78 171
181 164 172
182 153 173
183 122 174
184 143 173
185 165 172
186 171 171
187 166 170
188 168 170
189 166 169
190 159 167
191 132 168
192 97 166
193 160 165
194 140 163
195 151 162
196 151 162
197 139 161
198 120 160
199 44 158
200 133 156
201 118 157
202 147 157
203 109 155
204 11 157
205 136 159
206 91 160
207 158 160
208 158 161
209 155 161
210 158 161
211 152 160
212 151 159
213 157 158
214 100 158
215 155 158
216 144 157
217 130 158
218 143 157
219 157 157
220 150 156
221 155 155
222 139 153
223 138 153
224 123 155
225 28 157
226 100 157
227 141 159
228 138 160
229 142 159
230 157 158
231 148 158
232 29 157
233 130 156
234 148 155
235 21 153
236 143 153
237 129 152
238 153 154
239 150 153
240 140 153
241 153 153
242 155 155
243 155 156
244 155 156
245 151 156
246 126 155
247 150 153
248 133 151
249 149 150
250 107 150
251 142 149
252 142 149
253 149 149
254 146 148
255 138 148
256 53 148
257 147 148
258 149 149
259 147 148
260 132 148
261 142 147
262 128 145
263 130 143
264 64 142
265 15 142
266 140 140
267 140 140
268 139 139
269 11 139
270 129 141
271 124 142
272 4 141
273 134 143
274 141 143
275 125 143
276 111 142
277 118 142
278 118 143
279 130 142
280 138 141
281 140 140
282 124 139
283 138 139
284 137 138
285 115 137
286 116 138
287 138 138
288 137 137
289 136 136
290 113 135
291 111 133
292 92 131
293 124 132
294 52 131
295 7 132
296 94 138
297 127 139
298 138 143
299 143 143
300 126 143
301 126 142
302 139 145
303 131 145
304 139 144
305 85 142
306 90 142
307 105 143
308 125 143
309 103 141
310 94 139
311 137 140
312 126 140
313 100 138
314 136 138
315 130 139
316 101 138
317 129 138
318 132 137
319 126 134
320 126 133
321 133 134
322 1 133
323 113 133
324 124 135
325 130 134
326 100 133
327 106 133
328 125 131
329 122 130
330 123 128
331 104 128
332 109 127
333 109 126
334 108 126
335 105 126
336 115 127
337 121 129
338 129 131
339 79 132
340 101 135
341 131 135
342 103 133
343 123 130
344 5 130
345 91 130
346 58 130
347 127 131
348 98 131
349 128 131
350 128 130
351 112 129
352 29 128
353 2 127
354 109 129
355 114 128
356 115 128
357 116 128
358 69 127
359 119 126
360 91 126
361 106 125
362 104 124
363 123 123
364 101 122
365 107 121
366 104 121
367 96 119
368 103 118
369 99 116
370 92 114
371 102 113
372 108 114
373 110 112
374 107 110
375 104 109
376 64 109
377 110 111
378 110 110
379 101 109
380 106 108
381 91 107
382 81 105
383 100 104
384 102 104
385 74 102
386 83 102
387 89 102
388 37 102
389 98 102
390 101 102
391 82 101
392 95 100
393 76 99
394 98 98
395 89 97
396 83 95
397 75 93
398 73 90
399 67 87
400 84 86
401 84 84
402 84 84
403 72 85
404 82 82
405 53 84
406 85 86
407 85 85
408 76 84
409 70 82
410 67 81
411 81 82
412 77 81
413 70 80
414 44 78
415 66 79
416 67 76
417 75 75
418 22 74
419 64 72
420 56 72
421 60 70
422 62 68
423 61 66
424 60 66
425 61 66
426 67 67
427 65 67
428 67 67
429 63 66
430 59 65
431 62 63
432 58 64
433 56 64
434 57 64
435 42 64
436 59 62
437 57 61
438 54 60
439 56 57
440 53 58
441 55 59
442 18 57
443 53 58
444 52 57
445 24 56
446 21 52
447 21 51
448 41 49
449 37 47
450 46 46
451 24 46
452 39 44
453 39 44
454 44 44
455 40 41
456 34 41
457 38 41
458 40 41
459 35 39
460 31 36
461 33 34
462 23 35
463 11 35
464 33 34
465 25 33
466 30 30
467 23 29
468 28 29
469 26 28
470 26 27
471 20 26
472 15 25
473 11 24
474 6 25
475 22 25
476 24 24
477 17 23
478 20 22
479 22 22
480 20 21
481 15 20
482 17 18
483 15 16
484 14 16
485 15 15
486 9 14
487 7 13
488 11 12
489 7 10
490 2 9
491 9 9
492 6 9
493 4 10
494 5 9
495 7 9
496 5 8
497 3 7
498 3 7
499 3 7
500 2 6
501 4 6
502 2 5
503 1 4
504 1 4
505 1 3
506 1 1

